c FILE: i080-043

c SOURCE: From steinlib

c DESCRIPTION: Steinlib instance with 80 nodes and 632 edges.

p edge 80 632
e 1 3
e 1 11
e 1 15
e 1 26
e 1 28
e 1 35
e 1 43
e 1 44
e 1 46
e 1 51
e 1 53
e 1 64
e 1 65
e 1 69
e 1 71
e 1 75
e 1 77
e 1 79
e 1 80
e 2 8
e 2 11
e 2 12
e 2 17
e 2 19
e 2 20
e 2 27
e 2 39
e 2 43
e 2 46
e 2 49
e 2 52
e 2 57
e 2 58
e 2 64
e 2 75
e 2 78
e 2 79
e 3 6
e 3 9
e 3 10
e 3 12
e 3 14
e 3 16
e 3 33
e 3 47
e 3 49
e 3 51
e 3 53
e 3 58
e 3 59
e 3 61
e 3 71
e 3 74
e 4 11
e 4 16
e 4 27
e 4 32
e 4 40
e 4 43
e 4 50
e 4 56
e 4 59
e 4 60
e 4 67
e 4 68
e 4 71
e 4 77
e 5 6
e 5 7
e 5 12
e 5 16
e 5 20
e 5 25
e 5 26
e 5 49
e 5 51
e 5 58
e 5 64
e 5 75
e 5 80
e 6 10
e 6 13
e 6 24
e 6 38
e 6 43
e 6 46
e 6 51
e 6 58
e 6 73
e 7 9
e 7 10
e 7 22
e 7 27
e 7 34
e 7 50
e 7 52
e 7 55
e 7 57
e 7 59
e 7 61
e 7 72
e 8 20
e 8 25
e 8 29
e 8 30
e 8 32
e 8 50
e 8 51
e 8 58
e 8 60
e 8 61
e 8 69
e 9 12
e 9 21
e 9 23
e 9 25
e 9 26
e 9 29
e 9 31
e 9 34
e 9 35
e 9 38
e 9 44
e 9 51
e 9 55
e 9 58
e 9 70
e 9 72
e 9 79
e 10 16
e 10 19
e 10 22
e 10 28
e 10 33
e 10 39
e 10 42
e 10 46
e 10 47
e 10 50
e 10 58
e 10 60
e 10 73
e 11 13
e 11 25
e 11 28
e 11 36
e 11 39
e 11 43
e 11 50
e 11 56
e 11 58
e 11 60
e 11 68
e 11 73
e 11 79
e 12 16
e 12 20
e 12 27
e 12 28
e 12 32
e 12 35
e 12 37
e 12 46
e 12 49
e 12 75
e 13 21
e 13 26
e 13 27
e 13 29
e 13 32
e 13 33
e 13 38
e 13 44
e 13 48
e 13 49
e 13 53
e 13 60
e 13 62
e 13 63
e 14 15
e 14 26
e 14 27
e 14 39
e 14 40
e 14 42
e 14 48
e 14 50
e 14 53
e 14 55
e 14 57
e 14 60
e 14 62
e 14 67
e 14 70
e 14 72
e 14 80
e 15 17
e 15 22
e 15 29
e 15 30
e 15 35
e 15 37
e 15 39
e 15 56
e 15 57
e 15 64
e 15 65
e 15 66
e 15 68
e 15 77
e 16 17
e 16 25
e 16 36
e 16 37
e 16 38
e 16 40
e 16 46
e 16 49
e 16 65
e 16 73
e 17 20
e 17 24
e 17 26
e 17 29
e 17 35
e 17 38
e 17 41
e 17 42
e 17 43
e 17 48
e 17 55
e 17 66
e 17 67
e 18 24
e 18 25
e 18 36
e 18 37
e 18 43
e 18 45
e 18 47
e 18 48
e 18 50
e 18 58
e 18 63
e 18 73
e 18 75
e 18 76
e 18 78
e 19 24
e 19 32
e 19 36
e 19 41
e 19 44
e 19 47
e 19 52
e 19 61
e 19 80
e 20 22
e 20 26
e 20 27
e 20 28
e 20 37
e 20 40
e 20 44
e 20 45
e 20 46
e 20 49
e 20 57
e 20 58
e 20 71
e 20 75
e 21 22
e 21 26
e 21 33
e 21 37
e 21 40
e 21 46
e 21 49
e 21 55
e 21 56
e 21 64
e 21 65
e 21 71
e 21 76
e 21 78
e 21 80
e 22 23
e 22 33
e 22 35
e 22 45
e 22 46
e 22 50
e 22 52
e 22 53
e 22 63
e 22 68
e 22 79
e 23 25
e 23 29
e 23 34
e 23 37
e 23 41
e 23 51
e 23 54
e 23 62
e 23 73
e 23 79
e 24 42
e 24 49
e 24 68
e 24 71
e 24 72
e 24 73
e 24 76
e 24 77
e 25 27
e 25 32
e 25 33
e 25 39
e 25 54
e 25 56
e 25 59
e 25 60
e 25 62
e 25 70
e 25 76
e 26 33
e 26 34
e 26 35
e 26 40
e 26 41
e 26 47
e 26 48
e 26 49
e 26 58
e 26 62
e 26 63
e 26 78
e 26 79
e 27 33
e 27 41
e 27 47
e 27 49
e 27 52
e 27 57
e 27 61
e 27 67
e 27 68
e 27 70
e 27 77
e 27 78
e 28 41
e 28 45
e 28 46
e 28 51
e 28 62
e 28 65
e 28 69
e 28 73
e 28 74
e 28 75
e 28 79
e 29 30
e 29 40
e 29 43
e 29 47
e 29 48
e 29 49
e 29 50
e 29 52
e 29 72
e 29 73
e 30 33
e 30 34
e 30 36
e 30 39
e 30 47
e 30 48
e 30 57
e 30 63
e 30 64
e 30 67
e 30 69
e 30 71
e 30 77
e 30 80
e 31 32
e 31 33
e 31 42
e 31 55
e 31 61
e 31 68
e 31 69
e 31 70
e 31 74
e 32 34
e 32 37
e 32 42
e 32 44
e 32 52
e 32 55
e 32 57
e 32 60
e 32 66
e 32 68
e 32 70
e 32 77
e 32 78
e 33 38
e 33 39
e 33 41
e 33 44
e 33 47
e 33 48
e 33 50
e 33 53
e 33 55
e 33 61
e 33 63
e 33 66
e 33 72
e 33 78
e 33 80
e 34 40
e 34 50
e 34 53
e 34 58
e 34 61
e 34 62
e 34 68
e 34 79
e 35 52
e 35 54
e 35 59
e 35 63
e 35 68
e 35 71
e 35 77
e 36 40
e 36 42
e 36 45
e 36 47
e 36 49
e 36 54
e 36 60
e 36 66
e 36 76
e 36 77
e 36 79
e 37 40
e 37 44
e 37 59
e 37 61
e 37 64
e 37 65
e 37 76
e 37 78
e 38 41
e 38 45
e 38 46
e 38 50
e 38 51
e 38 62
e 38 64
e 38 67
e 38 71
e 38 76
e 39 48
e 39 64
e 39 69
e 39 72
e 39 74
e 39 75
e 40 47
e 40 58
e 40 59
e 40 63
e 40 77
e 40 80
e 41 42
e 41 44
e 41 63
e 41 70
e 41 74
e 41 76
e 41 80
e 42 48
e 42 51
e 42 53
e 42 59
e 42 60
e 42 61
e 42 66
e 42 67
e 42 74
e 42 79
e 43 47
e 43 64
e 43 68
e 43 70
e 43 71
e 43 76
e 44 48
e 44 57
e 44 65
e 44 69
e 44 70
e 44 72
e 44 75
e 45 51
e 45 57
e 45 60
e 45 62
e 45 65
e 45 67
e 45 71
e 45 72
e 45 80
e 46 48
e 46 51
e 46 52
e 46 56
e 46 67
e 46 72
e 46 75
e 46 77
e 46 78
e 47 55
e 47 61
e 47 65
e 47 68
e 47 75
e 47 77
e 48 52
e 48 59
e 48 63
e 48 65
e 48 69
e 48 73
e 49 51
e 49 55
e 49 59
e 49 65
e 49 69
e 49 70
e 49 76
e 49 77
e 49 80
e 50 53
e 50 61
e 50 72
e 50 75
e 51 53
e 51 58
e 51 59
e 51 67
e 51 72
e 51 77
e 51 80
e 52 68
e 52 74
e 52 75
e 53 66
e 53 69
e 53 70
e 53 72
e 53 78
e 53 80
e 54 58
e 54 64
e 54 68
e 54 69
e 54 76
e 55 56
e 55 62
e 55 67
e 56 57
e 56 61
e 56 63
e 56 67
e 56 69
e 57 59
e 57 62
e 57 67
e 57 68
e 57 70
e 57 78
e 58 60
e 58 62
e 58 73
e 59 60
e 59 64
e 59 68
e 59 70
e 59 74
e 59 78
e 60 63
e 60 68
e 60 70
e 60 73
e 60 74
e 61 64
e 61 65
e 61 66
e 61 74
e 61 78
e 62 65
e 62 72
e 63 66
e 63 73
e 64 69
e 64 70
e 64 76
e 64 80
e 65 73
e 65 78
e 66 71
e 66 74
e 67 73
e 67 74
e 67 76
e 68 74
e 69 72
e 70 71
e 70 74
e 71 75
e 71 80
e 72 73
e 73 75
e 74 75
e 76 78
e 77 80
